#This is Python generated data file for Pyomo model DCLF.py
#_author_:W. Bukhsh
#Time stamp: 2021-09-09 12:27:08.376492
set B:=
1
2
3
4
5
;
set G:=
Gen1
Gen2
Gen3
;
set D:=
D1
;
param PD:=
D1 12.0
;
set DNeg:=
;
param VOLL:=
D1 7000.0
;
param baseMVA:=
1
;
set LE:=
 1 
 2;
set L:=
L1
L2
L3
;
set TRANSF:= 
T1
;
set Gbs:=
1 Gen1
4 Gen2
5 Gen3
;
set Dbs:=
5 D1
;
set b0:=
1
;
param A:=
L1 1 1
L2 1 3
L3 1 3
L1 2 2
L2 2 4
L3 2 5
;
param AT:= 
T1 1 2
T1 2 3
;
param PG:=
Gen1 0.0
Gen2 60.0
Gen3 20.0
;
param Tap:=
T1 1.0
;
set SHUNT:=
Shunt
;
set SHUNTbs:=
2 Shunt
;
param GB:=
Shunt 0.0
;
param BB:=
Shunt 9.6
;
param QD:=
D1 24.0
;
param G11:=
L1 2983.8061027158656
L2 889.6018667055565
L3 711.6415415853286
;
param G12:=
L1 -2983.8061027158656
L2 -889.6018667055565
L3 -711.6415415853286
;
param G21:=
L1 -2983.8061027158656
L2 -889.6018667055565
L3 -711.6415415853286
;
param G22:=
L1 2983.8061027158656
L2 889.6018667055565
L3 711.6415415853286
;
param B11:=
L1 -7159.209610322777
L2 -816.6836809100191
L3 -652.8821482434206
;
param B12:=
L1 7159.209610322777
L2 816.6836809100191
L3 652.8821482434206
;
param B21:=
L1 7159.209610322777
L2 816.6836809100191
L3 652.8821482434206
;
param B22:=
L1 -7159.209610322777
L2 -816.6836809100191
L3 -652.8821482434206
;
param G11T:=
T1 7.114570628863954
;
param G12T:=
T1 -7.114570628863954
;
param G21T:=
T1 -7.114570628863954
;
param G22T:=
T1 7.114570628863954
;
param B11T:=
T1 -208.20908737424529
;
param B12T:=
T1 208.20908737424529
;
param B21T:=
T1 208.20908737424529
;
param B22T:=
T1 -208.20908737424529
;
set g0:=
Gen1
;
param VS:=
Gen1 1.02
Gen2 1.03
Gen3 1.03
;
param TapLB:=
T1 0.9785
;
param TapUB:=
T1 1.1
;
param bC:=
T1 0
;
param g:=
T1 7.114570628863954
;
param b:=
T1 -208.20908737424529
;
